NAME : XML100_1315_26
DIMENSION : 101
NB_CLUSTERS : 7
CLUSTERING_ALG : DBSCAN
CLUSTERING_PARAMS : eps(108), minSamples(3)
CLUSTERS
1 0
2 1 2 3 5 6 7 10 11 13 14 17 18 26 27 28 31 34 35 38 41 43 44 46 47 56 58 60 61 63 64 71 74 77 79 80 85 90 94 95 97 98 99
3 4 9 12 15 16 19 20 21 22 24 25 29 32 36 37 39 40 42 48 49 51 52 53 54 55 57 59 62 66 68 69 70 73 75 76 78 82 83 86 88 89 92 93 96
4 33 67 81
5 45 50 65 72 87 91
6 23 30
7 8 84 100
EOF